17	4	3
15	17	12	14	46	16	34	
0	0	0	0	0	7	10	3	3	7	5	3	2	3	4
1	7	0	2	0	1	5	1	8	7	10	1	17
3	0	3	3	6	4	2	1	7	10	3	3	7	10	17
8	9	0	3	4	8	1	4	4	10	9	3	5	6	16
1	4	0	7	7	4	3	5	4	3	6	3	8	11	13
100	2	0	0	0	7	9	5	9	1	1	2	12	14
100	9	0	0	8	4	2	5	4	10	1	1	15
75	10	5	10	0	4	3	3	4	10	3	1	9
175	0	0	0	5	7	7	3	10	10	2	1	17
225	8	0	0	0	8	4	4	3	7	7	1	17
50	2	0	2	0	8	3	5	2	2	6	1	17
200	0	10	6	0	3	6	8	8	10	8	1	17
6	0	9	2	0	8	3	1	1	6	10	2	17	17
2	8	6	3	0	3	3	6	6	2	6	1	17
8	0	6	0	1	7	10	9	1	2	6	1	17
9	0	7	0	10	8	10	8	3	2	10	2	17	17
0	0	0	0	0	9	4	5	7	2	4	0
